[2026-03-24T16:13:34.875Z] Pipeline "set_vm-3-t1_vm-3-t1_s030_g003" → 2026_03_24_16_13_34_set_vm-3-t1_vm-3-t1_s030_g003_max.sol
Set parameter Username
Set parameter LicenseID to value 2796068
Set parameter LogFile to value "gurobi.log"
Using license file /opt/gurobi/gurobi.lic
Academic license - for non-commercial use only - expires 2027-03-23

Gurobi Optimizer version 13.0.1 build v13.0.1rc0 (linux64 - "Ubuntu 24.04.4 LTS")
Copyright (c) 2026, Gurobi Optimization, LLC

Warning: Duplicate section found (read 'binary') - Is a variable name equal to an LP file format keyword?
Warning: Duplicate section found (read 'binary') - Is a variable name equal to an LP file format keyword?
Warning: Duplicate section found (read 'binary') - Is a variable name equal to an LP file format keyword?
Warning: Duplicate section found (read 'binary') - Is a variable name equal to an LP file format keyword?
Warning: Duplicate section found (read 'binary') - Is a variable name equal to an LP file format keyword?
Warning: Duplicate section found (read 'binary') - Is a variable name equal to an LP file format keyword?
Warning: Duplicate section found (read 'binary') - Is a variable name equal to an LP file format keyword?
Warning: Duplicate section found (read 'binary') - Is a variable name equal to an LP file format keyword?
Warning: Duplicate section found (read 'binary') - Is a variable name equal to an LP file format keyword?
Warning: Duplicate section found (read 'binary') - Is a variable name equal to an LP file format keyword?
Warning: Further warnings of this type will be omitted.
Read LP format model from file /root/bgw/data/uploads/2026_03_24_16_13_34_set_vm-3-t1_vm-3-t1_s030_g003_max.lp
Reading time = 0.02 seconds
: 20294 rows, 930 columns, 61937 nonzeros

Using Gurobi shared library /opt/gurobi1301/linux64/lib/libgurobi.so.13.0.1

CPU model: AMD EPYC-Genoa Processor, instruction set [SSE2|AVX|AVX2|AVX512]
Thread count: 16 physical cores, 16 logical processors, using up to 16 threads

Optimize a model with 20294 rows, 930 columns and 61937 nonzeros (Max)
Model fingerprint: 0xc260eb33
Model has 22 linear objective coefficients
Variable types: 62 continuous, 868 integer (868 binary)
Coefficient statistics:
  Matrix range     [1e+00, 4e+01]
  Objective range  [1e+00, 1e+00]
  Bounds range     [1e+00, 1e+00]
  RHS range        [1e+00, 4e+01]

Found heuristic solution: objective 22.0000000
Presolve removed 488 rows and 122 columns
Presolve time: 0.07s
Presolved: 19806 rows, 808 columns, 59788 nonzeros
Variable types: 0 continuous, 808 integer (798 binary)

Root relaxation: objective 1.130000e+02, 916 iterations, 0.11 seconds (0.13 work units)

    Nodes    |    Current Node    |     Objective Bounds      |     Work
 Expl Unexpl |  Obj  Depth IntInf | Incumbent    BestBd   Gap | It/Node Time

     0     0  113.00000    0   30   22.00000  113.00000   414%     -    0s
H    0     0                      59.0000000  113.00000  91.5%     -    0s
H    0     0                      61.0000000  113.00000  85.2%     -    0s
     0     0  113.00000    0   28   61.00000  113.00000  85.2%     -    0s
     0     0  113.00000    0   23   61.00000  113.00000  85.2%     -    0s
     0     0  113.00000    0   31   61.00000  113.00000  85.2%     -    0s
     0     0  113.00000    0   23   61.00000  113.00000  85.2%     -    0s
     0     0  113.00000    0   27   61.00000  113.00000  85.2%     -    0s
     0     0  113.00000    0   23   61.00000  113.00000  85.2%     -    0s
     0     0  113.00000    0   27   61.00000  113.00000  85.2%     -    0s
     0     0  113.00000    0   23   61.00000  113.00000  85.2%     -    0s
     0     0  106.00000    0   24   61.00000  106.00000  73.8%     -    0s
     0     0  106.00000    0   33   61.00000  106.00000  73.8%     -    0s
     0     0  106.00000    0   26   61.00000  106.00000  73.8%     -    1s
     0     0  106.00000    0   25   61.00000  106.00000  73.8%     -    1s
     0     0  106.00000    0   30   61.00000  106.00000  73.8%     -    1s
     0     0  106.00000    0   23   61.00000  106.00000  73.8%     -    1s
     0     0  106.00000    0   16   61.00000  106.00000  73.8%     -    1s
     0     0  106.00000    0   16   61.00000  106.00000  73.8%     -    1s
     0     0  106.00000    0   26   61.00000  106.00000  73.8%     -    1s
     0     0  106.00000    0   19   61.00000  106.00000  73.8%     -    1s
     0     0  106.00000    0   19   61.00000  106.00000  73.8%     -    1s
     0     0  106.00000    0   19   61.00000  106.00000  73.8%     -    1s
     0     2  106.00000    0   19   61.00000  106.00000  73.8%     -    1s
   456   252   82.94737   12   19   61.00000  106.00000  73.8%   194    5s
  1377   443   71.81579   16    9   61.00000  104.42105  71.2%   231   10s
  2384   627   72.68831   12  161   61.00000   96.60526  58.4%   261   15s
  3877   815   73.36357   11  145   61.00000   89.68836  47.0%   264   20s
  5472   869 infeasible   15        61.00000   81.28947  33.3%   268   25s
  8019   640     cutoff   14        61.00000   72.00000  18.0%   251   30s

Cutting planes:
  Cover: 38
  MIR: 3
  StrongCG: 1
  Inf proof: 137
  Zero half: 1

Explored 10266 nodes (2425625 simplex iterations) in 34.59 seconds (70.80 work units)
Thread count was 16 (of 16 available processors)

Solution count 3: 61 59 22 

Optimal solution found (tolerance 1.00e-04)
Best objective 6.100000000000e+01, best bound 6.100000000000e+01, gap 0.0000%

Wrote result file '/root/bgw/data/results/2026_03_24_16_13_34_set_vm-3-t1_vm-3-t1_s030_g003_max.sol'

